nN = 10;
nR = 30;
nH = 1;

a = [[15, 20, 24, 24, 22, 24, 24, 17, 15, 21, 18, 17, 19, 16, 17, 22, 19, 18, 16, 19, 23, 15, 24, 20, 15, 18, 20, 21, 20, 18], [19, 18, 21, 19, 23, 16, 20, 21, 23, 24, 15, 23, 15, 22, 19, 17, 16, 17, 17, 17, 20, 18, 16, 23, 24, 21, 16, 24, 20, 15], [23, 19, 22, 23, 15, 19, 23, 21, 15, 18, 17, 17, 16, 23, 23, 22, 21, 23, 17, 22, 16, 23, 20, 19, 15, 19, 15, 24, 17, 17], [15, 16, 21, 19, 21, 18, 16, 20, 23, 19, 20, 19, 16, 23, 15, 24, 20, 18, 17, 16, 22, 22, 20, 16, 24, 15, 18, 17, 21, 21], [17, 16, 17, 24, 18, 15, 23, 19, 20, 19, 23, 24, 17, 21, 25, 17, 19, 25, 22, 15, 18, 20, 24, 21, 19, 21, 16, 15, 19, 25], [19, 15, 20, 24, 19, 19, 17, 25, 21, 25, 17, 21, 16, 21, 24, 25, 19, 16, 22, 17, 15, 21, 16, 21, 20, 18, 17, 19, 18, 25], [25, 20, 21, 24, 22, 22, 16, 19, 16, 17, 25, 16, 18, 20, 17, 25, 18, 22, 23, 17, 17, 24, 17, 17, 25, 15, 18, 17, 21, 15], [24, 16, 22, 19, 19, 23, 21, 17, 25, 24, 17, 24, 25, 23, 23, 17, 25, 25, 22, 24, 23, 22, 19, 15, 16, 24, 15, 21, 19, 20], [15, 20, 21, 17, 20, 22, 19, 20, 25, 21, 23, 16, 17, 15, 20, 15, 25, 16, 25, 19, 25, 16, 19, 15, 19, 23, 19, 19, 17, 17], [19, 25, 21, 16, 24, 15, 23, 19, 21, 23, 15, 24, 22, 25, 15, 22, 23, 21, 15, 17, 21, 25, 21, 16, 25, 19, 23, 19, 22, 16]];
c = [[[0, 0, 0, 0, 0, 0, 0, 0, 0, 0, 0, 0, 0, 0, 0, 0, 0, 0, 0, 0, 0, 0, 0, 0, 0, 0, 0, 0, 0, 0], [50, 33, 43, 49, 30, 32, 32, 41, 46, 35, 40, 30, 32, 44, 43, 37, 44, 33, 46, 47, 46, 34, 32, 40, 40, 50, 34, 46, 39, 35], [48, 38, 42, 33, 44, 42, 46, 41, 42, 37, 40, 30, 35, 34, 38, 41, 30, 38, 34, 46, 49, 50, 36, 35, 33, 40, 44, 47, 43, 33], [43, 45, 49, 41, 31, 39, 30, 42, 31, 50, 50, 40, 30, 30, 47, 31, 41, 40, 41, 34, 34, 37, 35, 32, 39, 35, 50, 48, 37, 44], [43, 44, 47, 42, 44, 47, 40, 35, 34, 37, 38, 33, 37, 31, 31, 49, 38, 31, 39, 38, 36, 42, 31, 43, 37, 30, 44, 34, 42, 30], [38, 40, 39, 48, 50, 50, 31, 36, 49, 48, 45, 32, 37, 35, 43, 44, 30, 36, 30, 44, 50, 35, 34, 40, 41, 36, 38, 34, 50, 45], [45, 34, 50, 42, 36, 43, 44, 49, 33, 48, 44, 37, 32, 36, 40, 37, 40, 37, 36, 46, 44, 45, 37, 50, 38, 49, 50, 30, 45, 39], [44, 34, 44, 48, 33, 44, 50, 30, 47, 49, 33, 31, 40, 42, 48, 36, 37, 49, 33, 47, 33, 30, 46, 30, 38, 30, 40, 32, 32, 31], [34, 39, 38, 43, 32, 34, 34, 50, 32, 36, 30, 41, 39, 37, 41, 44, 40, 41, 36, 34, 31, 41, 40, 31, 46, 47, 50, 35, 39, 43], [37, 34, 49, 34, 39, 31, 32, 39, 38, 50, 34, 31, 30, 45, 39, 41, 41, 35, 30, 46, 33, 34, 38, 38, 31, 39, 47, 40, 33, 48]], [[0, 0, 0, 0, 0, 0, 0, 0, 0, 0, 0, 0, 0, 0, 0, 0, 0, 0, 0, 0, 0, 0, 0, 0, 0, 0, 0, 0, 0, 0], [0, 0, 0, 0, 0, 0, 0, 0, 0, 0, 0, 0, 0, 0, 0, 0, 0, 0, 0, 0, 0, 0, 0, 0, 0, 0, 0, 0, 0, 0], [33, 47, 46, 42, 43, 45, 39, 34, 30, 46, 42, 31, 45, 41, 48, 43, 47, 35, 50, 30, 40, 38, 40, 50, 36, 30, 48, 35, 50, 38], [32, 50, 48, 36, 44, 42, 47, 36, 32, 31, 35, 35, 46, 39, 50, 32, 39, 50, 37, 43, 42, 34, 35, 46, 48, 32, 47, 48, 40, 48], [35, 31, 47, 33, 47, 39, 48, 44, 38, 32, 34, 44, 49, 35, 33, 35, 47, 38, 31, 34, 42, 34, 41, 50, 34, 48, 49, 39, 48, 37], [30, 36, 49, 50, 34, 35, 45, 43, 42, 40, 44, 47, 50, 44, 43, 46, 44, 46, 49, 48, 36, 31, 30, 46, 34, 46, 34, 48, 38, 42], [34, 49, 43, 30, 50, 50, 30, 33, 48, 31, 35, 39, 40, 44, 39, 38, 48, 43, 37, 39, 46, 32, 39, 34, 49, 47, 47, 48, 44, 42], [46, 32, 33, 39, 42, 42, 45, 33, 44, 36, 44, 45, 47, 31, 34, 48, 46, 48, 37, 37, 42, 49, 46, 30, 47, 47, 40, 47, 40, 40], [38, 40, 42, 41, 41, 45, 40, 31, 37, 34, 40, 49, 46, 47, 44, 47, 40, 45, 47, 48, 42, 47, 35, 33, 35, 42, 49, 36, 30, 48], [31, 42, 40, 49, 37, 43, 49, 40, 48, 37, 43, 38, 31, 38, 33, 35, 49, 44, 30, 31, 37, 39, 45, 40, 49, 48, 37, 31, 37, 30]], [[0, 0, 0, 0, 0, 0, 0, 0, 0, 0, 0, 0, 0, 0, 0, 0, 0, 0, 0, 0, 0, 0, 0, 0, 0, 0, 0, 0, 0, 0], [0, 0, 0, 0, 0, 0, 0, 0, 0, 0, 0, 0, 0, 0, 0, 0, 0, 0, 0, 0, 0, 0, 0, 0, 0, 0, 0, 0, 0, 0], [0, 0, 0, 0, 0, 0, 0, 0, 0, 0, 0, 0, 0, 0, 0, 0, 0, 0, 0, 0, 0, 0, 0, 0, 0, 0, 0, 0, 0, 0], [48, 32, 31, 44, 32, 41, 38, 39, 38, 48, 36, 42, 42, 50, 49, 47, 43, 47, 49, 42, 36, 48, 38, 32, 46, 37, 37, 40, 34, 38], [31, 47, 40, 30, 45, 47, 38, 44, 41, 44, 45, 42, 32, 48, 32, 31, 42, 37, 33, 36, 44, 31, 33, 43, 50, 34, 44, 39, 43, 39], [35, 33, 40, 45, 44, 38, 34, 37, 42, 30, 41, 33, 41, 32, 41, 40, 38, 41, 42, 44, 32, 32, 33, 48, 38, 38, 30, 32, 46, 40], [49, 46, 49, 44, 32, 33, 32, 50, 34, 34, 39, 36, 44, 33, 39, 43, 37, 40, 39, 37, 45, 42, 49, 35, 45, 46, 35, 30, 50, 43], [31, 42, 32, 32, 50, 30, 46, 30, 38, 31, 38, 43, 44, 36, 48, 46, 30, 30, 43, 34, 43, 35, 50, 40, 40, 33, 45, 38, 32, 48], [43, 40, 46, 33, 48, 35, 41, 39, 40, 32, 47, 40, 39, 36, 31, 35, 30, 43, 32, 35, 48, 46, 41, 40, 30, 49, 50, 46, 34, 46], [38, 41, 32, 33, 48, 42, 49, 34, 44, 46, 46, 45, 49, 45, 44, 46, 46, 35, 39, 35, 48, 48, 37, 43, 47, 34, 41, 34, 34, 40]], [[0, 0, 0, 0, 0, 0, 0, 0, 0, 0, 0, 0, 0, 0, 0, 0, 0, 0, 0, 0, 0, 0, 0, 0, 0, 0, 0, 0, 0, 0], [0, 0, 0, 0, 0, 0, 0, 0, 0, 0, 0, 0, 0, 0, 0, 0, 0, 0, 0, 0, 0, 0, 0, 0, 0, 0, 0, 0, 0, 0], [0, 0, 0, 0, 0, 0, 0, 0, 0, 0, 0, 0, 0, 0, 0, 0, 0, 0, 0, 0, 0, 0, 0, 0, 0, 0, 0, 0, 0, 0], [0, 0, 0, 0, 0, 0, 0, 0, 0, 0, 0, 0, 0, 0, 0, 0, 0, 0, 0, 0, 0, 0, 0, 0, 0, 0, 0, 0, 0, 0], [49, 37, 48, 50, 49, 39, 36, 47, 33, 41, 43, 38, 47, 35, 38, 32, 40, 38, 40, 32, 39, 49, 39, 37, 33, 50, 39, 43, 44, 34], [49, 43, 40, 36, 39, 33, 33, 41, 34, 48, 34, 39, 47, 41, 47, 33, 37, 50, 46, 46, 37, 47, 47, 48, 32, 37, 35, 36, 40, 44], [36, 32, 35, 32, 44, 32, 30, 34, 35, 47, 32, 35, 36, 31, 30, 34, 47, 49, 33, 45, 36, 32, 40, 35, 35, 35, 42, 35, 48, 41], [32, 43, 39, 34, 40, 49, 39, 30, 39, 43, 47, 49, 39, 34, 36, 48, 38, 34, 35, 34, 45, 37, 32, 49, 33, 38, 48, 40, 31, 31], [50, 49, 40, 49, 34, 35, 36, 33, 36, 43, 35, 45, 30, 30, 50, 41, 42, 47, 37, 49, 34, 45, 41, 41, 39, 47, 47, 49, 33, 31], [48, 45, 39, 46, 34, 44, 48, 44, 43, 48, 38, 37, 36, 34, 38, 35, 34, 46, 44, 46, 42, 37, 46, 44, 47, 41, 48, 43, 35, 37]], [[0, 0, 0, 0, 0, 0, 0, 0, 0, 0, 0, 0, 0, 0, 0, 0, 0, 0, 0, 0, 0, 0, 0, 0, 0, 0, 0, 0, 0, 0], [0, 0, 0, 0, 0, 0, 0, 0, 0, 0, 0, 0, 0, 0, 0, 0, 0, 0, 0, 0, 0, 0, 0, 0, 0, 0, 0, 0, 0, 0], [0, 0, 0, 0, 0, 0, 0, 0, 0, 0, 0, 0, 0, 0, 0, 0, 0, 0, 0, 0, 0, 0, 0, 0, 0, 0, 0, 0, 0, 0], [0, 0, 0, 0, 0, 0, 0, 0, 0, 0, 0, 0, 0, 0, 0, 0, 0, 0, 0, 0, 0, 0, 0, 0, 0, 0, 0, 0, 0, 0], [0, 0, 0, 0, 0, 0, 0, 0, 0, 0, 0, 0, 0, 0, 0, 0, 0, 0, 0, 0, 0, 0, 0, 0, 0, 0, 0, 0, 0, 0], [36, 33, 44, 43, 33, 41, 37, 44, 49, 34, 46, 40, 43, 45, 35, 33, 40, 44, 34, 36, 45, 32, 47, 32, 30, 44, 40, 39, 34, 47], [38, 47, 33, 35, 38, 50, 45, 40, 47, 44, 47, 32, 30, 45, 30, 39, 37, 49, 42, 31, 50, 36, 33, 36, 36, 37, 47, 32, 43, 31], [35, 39, 50, 35, 45, 30, 48, 31, 48, 38, 34, 31, 38, 42, 33, 50, 39, 46, 31, 33, 42, 43, 44, 47, 31, 35, 33, 40, 31, 33], [31, 32, 45, 36, 40, 47, 32, 36, 41, 31, 44, 40, 43, 37, 35, 34, 31, 32, 34, 38, 46, 34, 37, 44, 30, 31, 40, 34, 46, 30], [36, 38, 48, 45, 41, 32, 35, 36, 35, 36, 34, 38, 38, 38, 35, 43, 44, 43, 48, 41, 38, 41, 32, 42, 39, 38, 49, 43, 50, 49]], [[0, 0, 0, 0, 0, 0, 0, 0, 0, 0, 0, 0, 0, 0, 0, 0, 0, 0, 0, 0, 0, 0, 0, 0, 0, 0, 0, 0, 0, 0], [0, 0, 0, 0, 0, 0, 0, 0, 0, 0, 0, 0, 0, 0, 0, 0, 0, 0, 0, 0, 0, 0, 0, 0, 0, 0, 0, 0, 0, 0], [0, 0, 0, 0, 0, 0, 0, 0, 0, 0, 0, 0, 0, 0, 0, 0, 0, 0, 0, 0, 0, 0, 0, 0, 0, 0, 0, 0, 0, 0], [0, 0, 0, 0, 0, 0, 0, 0, 0, 0, 0, 0, 0, 0, 0, 0, 0, 0, 0, 0, 0, 0, 0, 0, 0, 0, 0, 0, 0, 0], [0, 0, 0, 0, 0, 0, 0, 0, 0, 0, 0, 0, 0, 0, 0, 0, 0, 0, 0, 0, 0, 0, 0, 0, 0, 0, 0, 0, 0, 0], [0, 0, 0, 0, 0, 0, 0, 0, 0, 0, 0, 0, 0, 0, 0, 0, 0, 0, 0, 0, 0, 0, 0, 0, 0, 0, 0, 0, 0, 0], [48, 31, 36, 33, 40, 50, 36, 35, 36, 30, 38, 39, 35, 38, 38, 37, 36, 42, 43, 43, 50, 39, 44, 41, 50, 43, 31, 41, 30, 33], [40, 39, 32, 45, 44, 44, 30, 45, 37, 44, 45, 44, 50, 38, 30, 49, 47, 39, 32, 36, 36, 50, 43, 48, 43, 37, 34, 37, 46, 31], [45, 50, 38, 31, 33, 40, 47, 44, 46, 47, 40, 40, 45, 44, 35, 49, 42, 32, 46, 39, 40, 34, 39, 43, 38, 39, 36, 46, 49, 45], [35, 31, 47, 34, 33, 30, 31, 31, 43, 43, 32, 30, 47, 37, 44, 40, 50, 41, 43, 48, 34, 45, 34, 32, 45, 32, 50, 49, 38, 33]], [[0, 0, 0, 0, 0, 0, 0, 0, 0, 0, 0, 0, 0, 0, 0, 0, 0, 0, 0, 0, 0, 0, 0, 0, 0, 0, 0, 0, 0, 0], [0, 0, 0, 0, 0, 0, 0, 0, 0, 0, 0, 0, 0, 0, 0, 0, 0, 0, 0, 0, 0, 0, 0, 0, 0, 0, 0, 0, 0, 0], [0, 0, 0, 0, 0, 0, 0, 0, 0, 0, 0, 0, 0, 0, 0, 0, 0, 0, 0, 0, 0, 0, 0, 0, 0, 0, 0, 0, 0, 0], [0, 0, 0, 0, 0, 0, 0, 0, 0, 0, 0, 0, 0, 0, 0, 0, 0, 0, 0, 0, 0, 0, 0, 0, 0, 0, 0, 0, 0, 0], [0, 0, 0, 0, 0, 0, 0, 0, 0, 0, 0, 0, 0, 0, 0, 0, 0, 0, 0, 0, 0, 0, 0, 0, 0, 0, 0, 0, 0, 0], [0, 0, 0, 0, 0, 0, 0, 0, 0, 0, 0, 0, 0, 0, 0, 0, 0, 0, 0, 0, 0, 0, 0, 0, 0, 0, 0, 0, 0, 0], [0, 0, 0, 0, 0, 0, 0, 0, 0, 0, 0, 0, 0, 0, 0, 0, 0, 0, 0, 0, 0, 0, 0, 0, 0, 0, 0, 0, 0, 0], [36, 41, 49, 37, 33, 39, 38, 32, 33, 32, 42, 31, 48, 38, 35, 50, 30, 35, 41, 34, 45, 35, 35, 48, 40, 41, 38, 39, 45, 43], [36, 39, 38, 42, 32, 36, 50, 49, 35, 45, 36, 50, 39, 46, 32, 48, 43, 32, 38, 33, 47, 31, 33, 35, 47, 30, 31, 44, 44, 34], [39, 30, 44, 30, 40, 46, 37, 43, 48, 44, 48, 46, 42, 34, 40, 31, 36, 43, 48, 50, 47, 36, 47, 30, 50, 32, 33, 45, 31, 45]], [[0, 0, 0, 0, 0, 0, 0, 0, 0, 0, 0, 0, 0, 0, 0, 0, 0, 0, 0, 0, 0, 0, 0, 0, 0, 0, 0, 0, 0, 0], [0, 0, 0, 0, 0, 0, 0, 0, 0, 0, 0, 0, 0, 0, 0, 0, 0, 0, 0, 0, 0, 0, 0, 0, 0, 0, 0, 0, 0, 0], [0, 0, 0, 0, 0, 0, 0, 0, 0, 0, 0, 0, 0, 0, 0, 0, 0, 0, 0, 0, 0, 0, 0, 0, 0, 0, 0, 0, 0, 0], [0, 0, 0, 0, 0, 0, 0, 0, 0, 0, 0, 0, 0, 0, 0, 0, 0, 0, 0, 0, 0, 0, 0, 0, 0, 0, 0, 0, 0, 0], [0, 0, 0, 0, 0, 0, 0, 0, 0, 0, 0, 0, 0, 0, 0, 0, 0, 0, 0, 0, 0, 0, 0, 0, 0, 0, 0, 0, 0, 0], [0, 0, 0, 0, 0, 0, 0, 0, 0, 0, 0, 0, 0, 0, 0, 0, 0, 0, 0, 0, 0, 0, 0, 0, 0, 0, 0, 0, 0, 0], [0, 0, 0, 0, 0, 0, 0, 0, 0, 0, 0, 0, 0, 0, 0, 0, 0, 0, 0, 0, 0, 0, 0, 0, 0, 0, 0, 0, 0, 0], [0, 0, 0, 0, 0, 0, 0, 0, 0, 0, 0, 0, 0, 0, 0, 0, 0, 0, 0, 0, 0, 0, 0, 0, 0, 0, 0, 0, 0, 0], [48, 47, 40, 39, 32, 42, 39, 38, 42, 44, 50, 46, 46, 31, 34, 32, 38, 32, 40, 43, 33, 33, 49, 50, 38, 45, 37, 39, 37, 32], [44, 46, 44, 45, 32, 48, 36, 40, 37, 49, 36, 34, 39, 46, 49, 33, 34, 39, 40, 33, 47, 47, 34, 44, 43, 36, 35, 34, 41, 36]], [[0, 0, 0, 0, 0, 0, 0, 0, 0, 0, 0, 0, 0, 0, 0, 0, 0, 0, 0, 0, 0, 0, 0, 0, 0, 0, 0, 0, 0, 0], [0, 0, 0, 0, 0, 0, 0, 0, 0, 0, 0, 0, 0, 0, 0, 0, 0, 0, 0, 0, 0, 0, 0, 0, 0, 0, 0, 0, 0, 0], [0, 0, 0, 0, 0, 0, 0, 0, 0, 0, 0, 0, 0, 0, 0, 0, 0, 0, 0, 0, 0, 0, 0, 0, 0, 0, 0, 0, 0, 0], [0, 0, 0, 0, 0, 0, 0, 0, 0, 0, 0, 0, 0, 0, 0, 0, 0, 0, 0, 0, 0, 0, 0, 0, 0, 0, 0, 0, 0, 0], [0, 0, 0, 0, 0, 0, 0, 0, 0, 0, 0, 0, 0, 0, 0, 0, 0, 0, 0, 0, 0, 0, 0, 0, 0, 0, 0, 0, 0, 0], [0, 0, 0, 0, 0, 0, 0, 0, 0, 0, 0, 0, 0, 0, 0, 0, 0, 0, 0, 0, 0, 0, 0, 0, 0, 0, 0, 0, 0, 0], [0, 0, 0, 0, 0, 0, 0, 0, 0, 0, 0, 0, 0, 0, 0, 0, 0, 0, 0, 0, 0, 0, 0, 0, 0, 0, 0, 0, 0, 0], [0, 0, 0, 0, 0, 0, 0, 0, 0, 0, 0, 0, 0, 0, 0, 0, 0, 0, 0, 0, 0, 0, 0, 0, 0, 0, 0, 0, 0, 0], [0, 0, 0, 0, 0, 0, 0, 0, 0, 0, 0, 0, 0, 0, 0, 0, 0, 0, 0, 0, 0, 0, 0, 0, 0, 0, 0, 0, 0, 0], [35, 48, 48, 46, 44, 31, 40, 41, 32, 38, 37, 49, 38, 35, 45, 35, 45, 45, 49, 30, 41, 43, 50, 32, 36, 48, 50, 35, 44, 32]], [[0, 0, 0, 0, 0, 0, 0, 0, 0, 0, 0, 0, 0, 0, 0, 0, 0, 0, 0, 0, 0, 0, 0, 0, 0, 0, 0, 0, 0, 0], [0, 0, 0, 0, 0, 0, 0, 0, 0, 0, 0, 0, 0, 0, 0, 0, 0, 0, 0, 0, 0, 0, 0, 0, 0, 0, 0, 0, 0, 0], [0, 0, 0, 0, 0, 0, 0, 0, 0, 0, 0, 0, 0, 0, 0, 0, 0, 0, 0, 0, 0, 0, 0, 0, 0, 0, 0, 0, 0, 0], [0, 0, 0, 0, 0, 0, 0, 0, 0, 0, 0, 0, 0, 0, 0, 0, 0, 0, 0, 0, 0, 0, 0, 0, 0, 0, 0, 0, 0, 0], [0, 0, 0, 0, 0, 0, 0, 0, 0, 0, 0, 0, 0, 0, 0, 0, 0, 0, 0, 0, 0, 0, 0, 0, 0, 0, 0, 0, 0, 0], [0, 0, 0, 0, 0, 0, 0, 0, 0, 0, 0, 0, 0, 0, 0, 0, 0, 0, 0, 0, 0, 0, 0, 0, 0, 0, 0, 0, 0, 0], [0, 0, 0, 0, 0, 0, 0, 0, 0, 0, 0, 0, 0, 0, 0, 0, 0, 0, 0, 0, 0, 0, 0, 0, 0, 0, 0, 0, 0, 0], [0, 0, 0, 0, 0, 0, 0, 0, 0, 0, 0, 0, 0, 0, 0, 0, 0, 0, 0, 0, 0, 0, 0, 0, 0, 0, 0, 0, 0, 0], [0, 0, 0, 0, 0, 0, 0, 0, 0, 0, 0, 0, 0, 0, 0, 0, 0, 0, 0, 0, 0, 0, 0, 0, 0, 0, 0, 0, 0, 0], [0, 0, 0, 0, 0, 0, 0, 0, 0, 0, 0, 0, 0, 0, 0, 0, 0, 0, 0, 0, 0, 0, 0, 0, 0, 0, 0, 0, 0, 0]]];

q = [[[5], [25], [11], [25], [7], [15], [17], [12], [17], [9], [20], [14], [13], [25], [5], [18], [15], [13], [8], [18], [15], [8], [19], [8], [11], [7], [13], [15], [7], [16]], [[11], [6], [18], [10], [21], [23], [15], [22], [21], [10], [22], [7], [24], [7], [9], [19], [24], [11], [20], [18], [8], [8], [19], [14], [9], [16], [10], [6], [16], [7]], [[7], [7], [11], [14], [20], [22], [8], [22], [21], [22], [10], [25], [23], [19], [11], [24], [8], [6], [24], [18], [22], [12], [17], [9], [13], [18], [23], [16], [10], [19]], [[16], [17], [21], [9], [15], [24], [15], [24], [17], [21], [8], [18], [15], [11], [19], [25], [18], [9], [18], [7], [17], [25], [19], [15], [25], [19], [14], [10], [6], [15]], [[24], [10], [9], [22], [19], [16], [11], [22], [6], [23], [25], [24], [15], [23], [24], [15], [25], [19], [24], [24], [22], [18], [22], [17], [25], [25], [10], [20], [12], [20]], [[19], [16], [13], [9], [7], [16], [8], [16], [6], [12], [9], [14], [8], [14], [7], [23], [5], [7], [17], [25], [13], [10], [13], [13], [5], [8], [7], [21], [6], [13]], [[5], [24], [6], [7], [16], [22], [6], [20], [16], [22], [10], [13], [16], [25], [17], [18], [12], [21], [23], [9], [9], [8], [10], [13], [22], [8], [21], [23], [22], [16]], [[15], [15], [14], [13], [15], [23], [20], [17], [18], [6], [5], [21], [18], [21], [24], [19], [7], [10], [9], [12], [12], [11], [18], [23], [19], [10], [16], [22], [21], [19]], [[22], [18], [15], [10], [17], [22], [17], [14], [18], [17], [14], [16], [8], [20], [5], [20], [16], [15], [17], [25], [21], [25], [20], [11], [10], [15], [19], [6], [19], [9]], [[25], [14], [6], [23], [7], [14], [24], [5], [21], [24], [25], [21], [8], [11], [22], [14], [14], [7], [19], [5], [20], [12], [24], [17], [23], [7], [16], [22], [22], [20]]];
Q = [[32], [34], [38], [39], [45], [28], [36], [37], [38], [39]];
